FEATURES = {allInOneDashboard, createInvoices, createBills, connectYourBanks, runPayroll, createSalesPipelines, emailMarketing, emailSupport, chatSupport, accessToHelpCenter, deskeraAcademy, noCodeLandingPages, multiCurrency, applyLeaves, approveLeaves, dragAndDropCustomForms, addCustomFields, completeInventoryManagement, applyExpenses, approveExpenses, salesAutomation, automateTasksOnDealStages};
USAGE_LIMITS = {invoiceAndBillsLimit,runPayrollLimit};
PLANS = {STARTUP, ESSENTIAL, PROFESSIONAL};
ADDONS = {};

plans_prices = [35.0,58.0,119.0];
addons_prices = [];

plans_features = array2d(PLANS, FEATURES, [
    % STARTUP
    1, 1, 1, 1, 1, 1, 1, 1, 1, 1, 1, 1, 0, 0, 0, 0, 0, 0, 0, 0, 0,
    % ESSENTIAL
    1, 1, 1, 1, 1, 1, 1, 1, 1, 1, 1, 1, 1, 1, 1, 1, 0, 0, 0, 0, 0,
    % PROFESSIONAL
    1, 1, 1, 1, 1, 1, 1, 1, 1, 1, 1, 1, 1, 1, 1, 1, 1, 1, 1, 1, 1
]);
plans_usage_limits = array2d(PLANS, USAGE_LIMITS, [
    % STARTUP
    30,15,
    % ESSENTIAL
    inf,30,
    % PROFESSIONAL
    inf,100
]);

linked_features = array2d(USAGE_LIMITS, FEATURES, [
    % invoiceAndBillsLimit
    1,1,1,0,0,0,0,0,0,0,0,0,0,0,0,0,0,0,0,0,0,
    % runPayrollLimit
    0,0,0,0,1,0,0,0,0,0,0,0,0,0,0,0,0,0,0,0,0
]);

addons_features = array2d(ADDONS, FEATURES, [
]);
addons_usage_limits = array2d(ADDONS, USAGE_LIMITS, [
]);
addons_usage_limits_extensions = array2d(ADDONS, USAGE_LIMITS, [
]);
addons_available_for = array2d(ADDONS, PLANS, [
]);

addons_depends_on = array2d(ADDONS, ADDONS, [
]);